; DUP1 SLOAD CALLER SWAP1 => CALLER DUP2 SLOAD
(set-option :produce-proofs true)
; 
(set-info :status unknown)
(declare-fun storage_t ((_ BitVec 256) (_ BitVec 256) (_ BitVec 256) Int (_ BitVec 256)) (_ BitVec 256))
(declare-fun storage_s ((_ BitVec 256) (_ BitVec 256) (_ BitVec 256) Int (_ BitVec 256)) (_ BitVec 256))
(declare-fun exc_halt_t (Int) Bool)
(declare-fun exc_halt_s (Int) Bool)
(declare-fun stack_t ((_ BitVec 256) (_ BitVec 256) (_ BitVec 256) Int (_ BitVec 6)) (_ BitVec 256))
(declare-fun stack_s ((_ BitVec 256) (_ BitVec 256) (_ BitVec 256) Int (_ BitVec 6)) (_ BitVec 256))
(declare-fun sc_t (Int) (_ BitVec 6))
(declare-fun sc_s (Int) (_ BitVec 6))
(declare-fun used_gas_t ((_ BitVec 256) (_ BitVec 256) (_ BitVec 256) Int) Int)
(declare-fun used_gas_s ((_ BitVec 256) (_ BitVec 256) (_ BitVec 256) Int) Int)
(assert
 (exists ((x_0 (_ BitVec 256)) (x_SLOAD_0 (_ BitVec 256)) (x_CALLER (_ BitVec 256)) )(let (($x6987 (forall ((w (_ BitVec 256)) )(let ((?x1846 (storage_t x_0 x_SLOAD_0 x_CALLER 3 w)))
 (let ((?x2114 (storage_s x_0 x_SLOAD_0 x_CALLER 4 w)))
 (= ?x2114 ?x1846))))
 ))
 (let (($x5429 (exc_halt_t 3)))
 (let (($x9175 (exc_halt_s 4)))
 (let (($x5719 (= $x9175 $x5429)))
 (let (($x7237 (forall ((n (_ BitVec 6)) )(let ((?x4791 (stack_t x_0 x_SLOAD_0 x_CALLER 3 n)))
 (let ((?x6018 (stack_s x_0 x_SLOAD_0 x_CALLER 4 n)))
 (let (($x10490 (= ?x6018 ?x4791)))
 (or (bvsle (sc_t 3) n) $x10490)))))
 ))
 (let ((?x7621 (sc_t 3)))
 (let ((?x9433 (sc_s 4)))
 (let (($x1699 (= ?x9433 ?x7621)))
 (let ((?x4890 (used_gas_t x_0 x_SLOAD_0 x_CALLER 0)))
 (let ((?x7103 (used_gas_s x_0 x_SLOAD_0 x_CALLER 0)))
 (let (($x4162 (= ?x7103 ?x4890)))
 (let (($x10443 (forall ((w (_ BitVec 256)) )(let ((?x8696 (storage_t x_0 x_SLOAD_0 x_CALLER 0 w)))
 (let ((?x11812 (storage_s x_0 x_SLOAD_0 x_CALLER 0 w)))
 (= ?x11812 ?x8696))))
 ))
 (let (($x56 (exc_halt_t 0)))
 (let (($x57 (exc_halt_s 0)))
 (let (($x58 (= $x57 $x56)))
 (let (($x7961 (forall ((n (_ BitVec 6)) )(let ((?x63 (sc_t 0)))
 (let (($x11318 (bvsle ?x63 n)))
 (let ((?x11058 (stack_t x_0 x_SLOAD_0 x_CALLER 0 n)))
 (let ((?x9688 (stack_s x_0 x_SLOAD_0 x_CALLER 0 n)))
 (let (($x2867 (= ?x9688 ?x11058)))
 (or $x2867 $x11318)))))))
 ))
 (let ((?x63 (sc_t 0)))
 (let ((?x72 (sc_s 0)))
 (let (($x73 (= ?x72 ?x63)))
 (let (($x10329 (= $x5429 (or (exc_halt_t 2) (not (bvsle (_ bv0 6) (bvadd (_ bv63 6) (sc_t 2))))))))
 (let (($x3963 (forall ((w (_ BitVec 256)) )(let ((?x10167 (storage_t x_0 x_SLOAD_0 x_CALLER 2 w)))
 (let ((?x1846 (storage_t x_0 x_SLOAD_0 x_CALLER 3 w)))
 (= ?x1846 ?x10167))))
 ))
 (let (($x8619 (forall ((n (_ BitVec 6)) )(let ((?x8486 (stack_t x_0 x_SLOAD_0 x_CALLER 2 n)))
 (let ((?x4791 (stack_t x_0 x_SLOAD_0 x_CALLER 3 n)))
 (or (bvsle (bvadd (_ bv63 6) (sc_t 2)) n) (= ?x4791 ?x8486)))))
 ))
 (let (($x6404 (= (used_gas_t x_0 x_SLOAD_0 x_CALLER 3) (+ 200 (used_gas_t x_0 x_SLOAD_0 x_CALLER 2)))))
 (let ((?x8890 (sc_t 2)))
 (let ((?x6760 (bvadd (_ bv63 6) ?x8890)))
 (let ((?x11396 (stack_t x_0 x_SLOAD_0 x_CALLER 2 ?x6760)))
 (let (($x1278 (= (stack_t x_0 x_SLOAD_0 x_CALLER 3 (bvadd (_ bv63 6) ?x7621)) (storage_t x_0 x_SLOAD_0 x_CALLER 2 ?x11396))))
 (let (($x11985 (exc_halt_t 1)))
 (let (($x9060 (or (not (= ((_ extract 6 6) (bvadd (_ bv1 7) (concat (_ bv0 1) (sc_t 1)))) (_ bv0 1))) (not (bvsle (_ bv0 6) (bvadd (_ bv62 6) (sc_t 1)))) $x11985)))
 (let (($x7505 (exc_halt_t 2)))
 (let (($x3589 (forall ((w (_ BitVec 256)) )(let ((?x2009 (storage_t x_0 x_SLOAD_0 x_CALLER 1 w)))
 (let ((?x10167 (storage_t x_0 x_SLOAD_0 x_CALLER 2 w)))
 (= ?x10167 ?x2009))))
 ))
 (let (($x7994 (forall ((n (_ BitVec 6)) )(let ((?x984 (stack_t x_0 x_SLOAD_0 x_CALLER 1 n)))
 (let ((?x8486 (stack_t x_0 x_SLOAD_0 x_CALLER 2 n)))
 (or (= ?x8486 ?x984) (bvsle (bvadd (_ bv62 6) (sc_t 1)) n)))))
 ))
 (let ((?x9021 (used_gas_t x_0 x_SLOAD_0 x_CALLER 2)))
 (let (($x3079 (= (stack_t x_0 x_SLOAD_0 x_CALLER 2 (bvadd (_ bv63 6) (sc_t 1))) (stack_t x_0 x_SLOAD_0 x_CALLER 1 (bvadd (_ bv63 6) (sc_t 1))))))
 (let ((?x4554 (sc_t 1)))
 (let ((?x2315 (bvadd (_ bv62 6) ?x4554)))
 (let ((?x7245 (stack_t x_0 x_SLOAD_0 x_CALLER 1 ?x2315)))
 (let (($x6702 (= $x11985 (or $x56 (not (= ((_ extract 6 6) (bvadd (_ bv1 7) (concat (_ bv0 1) ?x63))) (_ bv0 1)))))))
 (let (($x7292 (forall ((w (_ BitVec 256)) )(let ((?x8696 (storage_t x_0 x_SLOAD_0 x_CALLER 0 w)))
 (let ((?x2009 (storage_t x_0 x_SLOAD_0 x_CALLER 1 w)))
 (= ?x2009 ?x8696))))
 ))
 (let (($x3388 (forall ((n (_ BitVec 6)) )(let ((?x63 (sc_t 0)))
 (let (($x11318 (bvsle ?x63 n)))
 (let ((?x11058 (stack_t x_0 x_SLOAD_0 x_CALLER 0 n)))
 (let ((?x984 (stack_t x_0 x_SLOAD_0 x_CALLER 1 n)))
 (or (= ?x984 ?x11058) $x11318))))))
 ))
 (let (($x1274 (= $x9175 (or (exc_halt_s 3) (not (bvsle (_ bv0 6) (bvadd (_ bv62 6) (sc_s 3))))))))
 (let (($x5783 (forall ((w (_ BitVec 256)) )(let ((?x2107 (storage_s x_0 x_SLOAD_0 x_CALLER 3 w)))
 (let ((?x2114 (storage_s x_0 x_SLOAD_0 x_CALLER 4 w)))
 (= ?x2114 ?x2107))))
 ))
 (let (($x11240 (forall ((n (_ BitVec 6)) )(let ((?x3851 (sc_s 3)))
 (let ((?x8089 (bvadd (_ bv62 6) ?x3851)))
 (let (($x1497 (bvsle ?x8089 n)))
 (let ((?x3167 (stack_s x_0 x_SLOAD_0 x_CALLER 3 n)))
 (let ((?x6018 (stack_s x_0 x_SLOAD_0 x_CALLER 4 n)))
 (or (= ?x6018 ?x3167) $x1497)))))))
 ))
 (let ((?x3851 (sc_s 3)))
 (let (($x9342 (= ?x9433 ?x3851)))
 (let (($x11173 (= (used_gas_s x_0 x_SLOAD_0 x_CALLER 4) (+ 3 (used_gas_s x_0 x_SLOAD_0 x_CALLER 3)))))
 (let (($x8290 (= (stack_s x_0 x_SLOAD_0 x_CALLER 4 (bvadd (_ bv62 6) ?x9433)) (stack_s x_0 x_SLOAD_0 x_CALLER 3 (bvadd (_ bv63 6) ?x3851)))))
 (let (($x3635 (= (stack_s x_0 x_SLOAD_0 x_CALLER 4 (bvadd (_ bv63 6) ?x9433)) (stack_s x_0 x_SLOAD_0 x_CALLER 3 (bvadd (_ bv62 6) ?x3851)))))
 (let (($x10052 (exc_halt_s 2)))
 (let (($x2202 (or $x10052 (not (= ((_ extract 6 6) (bvadd (_ bv1 7) (concat (_ bv0 1) (sc_s 2)))) (_ bv0 1))))))
 (let (($x8103 (exc_halt_s 3)))
 (let (($x7802 (forall ((w (_ BitVec 256)) )(let ((?x11677 (storage_s x_0 x_SLOAD_0 x_CALLER 2 w)))
 (let ((?x2107 (storage_s x_0 x_SLOAD_0 x_CALLER 3 w)))
 (= ?x2107 ?x11677))))
 ))
 (let (($x4639 (forall ((n (_ BitVec 6)) )(let ((?x5581 (stack_s x_0 x_SLOAD_0 x_CALLER 2 n)))
 (let ((?x3167 (stack_s x_0 x_SLOAD_0 x_CALLER 3 n)))
 (or (= ?x3167 ?x5581) (bvsle (sc_s 2) n)))))
 ))
 (let ((?x8669 (used_gas_s x_0 x_SLOAD_0 x_CALLER 3)))
 (let (($x6277 (= $x10052 (or (exc_halt_s 1) (not (bvsle (_ bv0 6) (bvadd (_ bv63 6) (sc_s 1))))))))
 (let (($x11420 (forall ((w (_ BitVec 256)) )(let ((?x565 (storage_s x_0 x_SLOAD_0 x_CALLER 1 w)))
 (let ((?x11677 (storage_s x_0 x_SLOAD_0 x_CALLER 2 w)))
 (= ?x11677 ?x565))))
 ))
 (let (($x3854 (forall ((n (_ BitVec 6)) )(let ((?x7318 (stack_s x_0 x_SLOAD_0 x_CALLER 1 n)))
 (let ((?x5581 (stack_s x_0 x_SLOAD_0 x_CALLER 2 n)))
 (or (= ?x5581 ?x7318) (bvsle (bvadd (_ bv63 6) (sc_s 1)) n)))))
 ))
 (let ((?x154 (sc_s 1)))
 (let ((?x2272 (sc_s 2)))
 (let (($x5959 (= ?x2272 ?x154)))
 (let ((?x604 (used_gas_s x_0 x_SLOAD_0 x_CALLER 2)))
 (let ((?x1791 (bvadd (_ bv63 6) ?x154)))
 (let ((?x8994 (stack_s x_0 x_SLOAD_0 x_CALLER 1 ?x1791)))
 (let (($x4118 (= (stack_s x_0 x_SLOAD_0 x_CALLER 2 (bvadd (_ bv63 6) ?x2272)) (storage_s x_0 x_SLOAD_0 x_CALLER 1 ?x8994))))
 (let (($x1465 (not (= ((_ extract 6 6) (bvadd (_ bv1 7) (concat (_ bv0 1) ?x72))) (_ bv0 1)))))
 (let (($x8780 (exc_halt_s 1)))
 (let (($x7244 (forall ((w (_ BitVec 256)) )(let ((?x11812 (storage_s x_0 x_SLOAD_0 x_CALLER 0 w)))
 (let ((?x565 (storage_s x_0 x_SLOAD_0 x_CALLER 1 w)))
 (= ?x565 ?x11812))))
 ))
 (let (($x1778 (forall ((n (_ BitVec 6)) )(let ((?x9688 (stack_s x_0 x_SLOAD_0 x_CALLER 0 n)))
 (let ((?x7318 (stack_s x_0 x_SLOAD_0 x_CALLER 1 n)))
 (or (bvsle (bvadd (_ bv63 6) (sc_s 0)) n) (= ?x7318 ?x9688)))))
 ))
 (let (($x5475 (= ?x154 (bvadd (_ bv1 6) ?x72))))
 (let ((?x10288 (bvadd (_ bv63 6) ?x72)))
 (let ((?x8145 (stack_s x_0 x_SLOAD_0 x_CALLER 0 ?x10288)))
 (let (($x6016 (forall ((w (_ BitVec 256)) )(let ((?x860 (ite (= w (stack_s x_0 x_SLOAD_0 x_CALLER 1 (bvadd (_ bv63 6) (sc_s 1)))) x_SLOAD_0 (_ bv0 256))))
 (let ((?x11812 (storage_s x_0 x_SLOAD_0 x_CALLER 0 w)))
 (= ?x11812 ?x860))))
 ))
 (let (($x5077 (= ?x7103 0)))
 (let (($x3971 (not $x57)))
 (let (($x7862 (= (stack_s x_0 x_SLOAD_0 x_CALLER 0 (_ bv0 6)) x_0)))
 (let (($x4098 (= ?x72 (_ bv1 6))))
 (and $x4098 $x7862 $x3971 $x5077 $x6016 (= ?x8994 ?x8145) (= (stack_s x_0 x_SLOAD_0 x_CALLER 1 ?x10288) ?x8145) (= (used_gas_s x_0 x_SLOAD_0 x_CALLER 1) (+ 3 ?x7103)) $x5475 $x1778 $x7244 (= $x8780 (or $x57 $x1465 (not (bvsle (_ bv0 6) ?x10288)))) $x4118 (= ?x604 (+ 200 (used_gas_s x_0 x_SLOAD_0 x_CALLER 1))) $x5959 $x3854 $x11420 $x6277 (= (stack_s x_0 x_SLOAD_0 x_CALLER 3 ?x2272) x_CALLER) (= ?x8669 (+ 2 ?x604)) (= ?x3851 (bvadd (_ bv1 6) ?x2272)) $x4639 $x7802 (= $x8103 $x2202) $x3635 $x8290 $x11173 $x9342 $x11240 $x5783 $x1274 (= (stack_t x_0 x_SLOAD_0 x_CALLER 1 ?x63) x_CALLER) (= (used_gas_t x_0 x_SLOAD_0 x_CALLER 1) (+ 2 ?x4890)) (= ?x4554 (bvadd (_ bv1 6) ?x63)) $x3388 $x7292 $x6702 (= ?x11396 ?x7245) (= (stack_t x_0 x_SLOAD_0 x_CALLER 2 ?x2315) ?x7245) $x3079 (= ?x9021 (+ 3 (used_gas_t x_0 x_SLOAD_0 x_CALLER 1))) (= ?x8890 (bvadd (_ bv1 6) ?x4554)) $x7994 $x3589 (= $x7505 $x9060) $x1278 $x6404 (= ?x7621 ?x8890) $x8619 $x3963 $x10329 $x73 $x7961 $x58 $x10443 $x4162 (not (and $x1699 $x7237 $x5719 $x6987))))))))))))))))))))))))))))))))))))))))))))))))))))))))))))))))))))))))))))))))
 )
(check-sat)
(get-proof)
